NAME : mar50_100_2
COMMENT : Data set with 50 points
COMMENT : CIn-UFPE
COMMENT : Contributed by Marcelo Lacerda
TYPE : TSP
DIMENSION : 50
EDGE_WEIGHT_TYPE : EUC_2D
NODE_COORD_SECTION
1 37 77
2 55 84
3 84 16
4 48 96
5 35 88
6 79 91
7 62 44
8 84 22
9 99 50
10 77 38
11 34 10
12 14 91
13 33 89
14 16 85
15 26 60
16 17 49
17 58 63
18 93 23
19 57 58
20 96 83
21 91 46
22 52 71
23 91 49
24 62 88
25 75 49
26 16 3
27 36 69
28 68 50
29 55 32
30 83 53
31 61 92
32 71 67
33 4 7
34 23 53
35 88 25
36 31 13
37 66 40
38 70 68
39 53 80
40 78 40
41 51 49
42 78 79
43 3 77
44 97 71
45 50 22
46 74 28
47 0 60
48 47 76
49 66 2
50 67 18
EOF
